1000 1805
1 2 3 4 5 6 7 8 9 10
0 11 12 13 14 15 16 17 18 19 20 21 22 23 24 25 26
0 27 28 29 30 31 32 33 34 35
0 36 37 38 39 40 41 42 43 44 45 46 47 48 49 50 51 52 53 54 55 56 57 58 59 60 61
0 62 63 64 65 66 67 68 69 70 71 72 73 74 75 76 77
0 7 78 79 80 81 82 83
0 7 10 21 84 85 86 87 88 89
0 5 6 9 82 90 91 92 93 94 95 96 97 98
0 99 100 101 102 103 104 105 106 107 108 109 110 111 112 113 114 115 116 117 118 119 120 121 122 123 124 125 126 127 128 129 130 131 132 133 134 135 136
0 7 82 137 138
0 6 68 74 76 139 140 141 142 143 144 145 146 147 148 149 150 151 152 153 154 155 156 157 158 159 160 161 162 163 164 165 166 167 168 169 170 171 172 173 174
1 175 176 177 178 179 180 181 182 183 184 185 186 187 188 189 190 191 192 193
1 87 194 195 196 197 198 199 200 201 202 203 204 205 206 207 208 209 210 211 212 213 214 215 216 217 218 219 220 221 222 223 224 225 226 227 228 229 230 231 232 233 234 235 236 237 238 239 240 241 242 243 244 245 246 247 248 249 250 251 252 253 254 255 256 257 258 259 260 261 262 263 264 265 266 267 268 269 270 271 272 273 274 275 276 277 278 279 280 281 282 283 284 285 286 287 288 289 290 291 292 293 294 295 296 297 298 299 300 301 302 303 304 305 306 307 308 309 310 311 312 313 314 315 316 317 318 319 320 321 322 323 324 325 326 327 328 329 330 331 332 333 334 335 336 337 338 339 340 341 342 343 344 345 346 347 348 349 350 351 352 353 354 355 356 357 358 359 360 361 362 363 364 365 366 367 368
1 17 369 370 371
1 372 373 374 375 376 377 378 379 380
1 381 382 383 384 385 386 387 388 389 390 391 392 393 394 395 396 397 398 399 400 401 402 403 404 405 406 407 408 409 410 411 412 413 414 415 416 417 418 419 420 421 422 423 424 425 426 427 428 429 430 431 432 433 434 435 436 437 438 439 440 441 442 443 444 445 446 447 448 449 450 451 452 453 454 455 456 457 458 459 460 461 462 463 464 465 466 467 468 469 470 471 472
1 470 473 474 475 476 477 478 479 480 481 482 483
1 13 175 243 484 485 486 487 488 489 490 491 492 493 494 495 496 497 498 499 500 501 502 503 504
1 470 482 505 506 507 508 509 510 511 512 513 514 515 516 517 518 519 520 521 522 523 524 525 526
1 508 527 528 529 530 531 532 533 534 535 536 537 538 539 540 541 542 543 544 545 546 547 548 549 550 551 552 553 554 555 556 557 558 559 560 561 562 563 564 565 566 567 568 569 570 571 572 573 574 575 576 577 578 579 580 581 582 583 584 585 586 587 588 589 590 591 592 593 594 595 596 597 598 599
1 600 601 602 603 604 605 606 607 608 609 610 611 612 613 614 615 616 617 618 619 620 621 622 623 624 625 626 627 628 629 630 631 632 633 634 635 636 637 638 639 640 641 642 643 644 645 646 647 648 649 650 651 652 653 654 655 656 657 658 659 660 661 662 663 664 665 666 667 668 669 670 671 672 673 674 675 676 677 678 679 680 681 682 683 684 685 686 687 688 689 690 691 692 693 694 695 696 697 698 699 700 701
1 6 279 702 703 704 705 706 707 708 709 710 711 712 713 714 715 716 717 718 719 720 721 722
1 723 724 725 726 727 728 729 730 731 732 733 734 735 736 737
1 738 739 740 741 742 743 744 745 746 747 748 749
1 371 750 751 752 753 754 755 756 757 758 759 760 761 762 763 764 765 766 767
1 768 769 770 771 772 773 774 775 776 777 778 779 780 781 782 783 784 785 786 787 788 789 790 791 792 793 794 795 796 797 798 799 800 801
1 802 803 804 805 806 807 808 809 810 811 812 813 814 815 816
2 817 818 819 820 821 822 823 824 825 826 827 828 829 830 831 832 833 834 835 836 837
2 833 838 839 840 841 842 843 844 845 846 847 848 849 850 851 852 853 854 855 856 857 858 859 860 861 862 863 864 865 866 867 868 869 870 871 872 873 874 875 876 877 878 879 880 881 882 883 884 885 886 887 888 889 890 891 892 893 894 895 896 897 898 899 900 901 902 903 904 905 906 907 908 909 910 911 912 913 914 915 916 917 918 919 920 921 922
2 892 923 924 925 926 927 928 929 930 931 932 933 934 935 936 937 938 939 940 941 942 943 944
2 945 946 947 948 949 950 951 952 953 954 955 956 957 958 959 960 961 962 963 964 965 966 967 968 969 970 971 972 973 974 975 976 977
2 978 979 980 981 982 983 984 985 986 987 988 989 990 991 992 993 994 995 996 997 998 999
2
2 577
2 35
2 34
3
3 53 330
3 47 55
3
3 41 94 297 440 841 852
3 40
3
3
3 298
3
3
3 38
3
3 186 577
3
3
3 567 570 577 779 912
3 37
3
3 38
3 827 877
3
3
3
3
3
4
4 65 67 70
4 66
4 63 69 71
4 64
4 63 69 70 71
4 10 74 76
4 65 67 70 71 75
4 63 67 69 71 75
4 65 67 69 70 75
4
4
4 10 68
4 69 70 71
4 10 68 147 164
4
5 79 138
5 78 138
5 101
5
5 7 9 90 91 92 97
5 93
6
6
6
6 12 99 240 329
6
6 566
7 82 92 97
7 82 92 97
7 82 90 91
7 83
7 40
7
7 652 761
7 82 90 91
7
8 87 256 335 398
8 135
8 80 664
8 937 939
8 577
8 217
8
8 135
8
8 642
8
8
8
8
8 592
8
8 948
8
8
8 779 880 887
8
8 913
8
8 779
8
8 127 966 988
8
8
8 124 967
8
8
8 531 802
8
8
8
8
8 100 106
8
9
9 78 79
10
10 152
10 144 146 148 149 163 165 167
10
10 148 158 161 165 167 173
10 141 146 148 149 154 163 165 166 167 173
10 155 165
10 141 144 148 149 154 165 167
10 76
10 141 143 144 146 149 154 156 158 161 165 167 169 173
10 141 144 146 148 156 165 166 167 171 172
10
10
10 140
10
10 144 146 148 158 161 165 167 173
10 145
10 148 149 161 167 173
10
10 143 148 154 167
10
10
10 143 148 154 156 165 167 169 173
10
10 141 144 167
10 76
10 141 143 144 145 146 148 149 154 161 166 167 172 173
10 144 149 165 167
10 141 143 144 146 148 149 154 156 158 161 163 165 166 172
10
10 148 161
10
10 149
10 149 165 167
10 143 144 148 154 156 161 165
10
11 17 178 181 189 371
11
11
11 175 181
11
11 193
11 175 178
11
11 190 617
11 185 637
11 184
11 49
11 258
11
11 175
11 183 648
11 211
11
11 180 648
12
12
12
12
12 350
12 244 249 426
12
12 269
12
12 288
12 262
12
12
12 256
12
12 266 324
12
12 191 914
12 377
12 256
12 316
12 324 350
12
12 104 247 274 299 374 386 406 416 432 505 542 551 567 569 717 721 725 739 809 841 877 912 939 959
12
12 260
12
12 256
12 300
12 799
12
12 892 895
12 277 346
12 326 779
12
12 256
12 852 937
12
12 799
12
12
12
12
12
12 277 297 345
12
12 87
12 316 345
12 281
12 17 288 297
12 199
12 295
12
12 217
12
12 199
12
12 271
12 567
12
12 266
12
12 99 207 213 221 229 298 327
12
12 187 489 957
12
12 219 300
12
12 204
12 350
12
12 295 901
12 209 254 324
12 318
12
12 201
12
12 251
12
12
12 217
12 466 540 972
12
12 226 238
12 308 314 340
12 21
12 405 407
12 242
12 288
12
12
12
12
12
12 203 243 282 296 303 312 316 330 332 366
12
12
12
12
12
12 975
12 245 265 308 314
12 288
12 40 238 243
12 44 256
12 217
12 222 260 390 957
12 317
12
12 288
12
12 399 406 508 528 535 720 749 825
12 658
12
12 278 295 337 340
12
12 470 703
12
12 288
12
12 278 295 340
12
12 214 241 288
12 301
12 267 358 920
12
12 651 686
12
12 944 948
12 895
12 209 215 266
12
12 227
12 256
12
12 87
12 37 288
12
12 288
12
12
12 99
12
12 308 340
12
12
12 278 308 314 337
12
12
12
12 570
12 238 241
12 226
12
12
12
12 198 215 263 366
12
12
12
12 598 704 738
12
12 525
12
12 318
12
12
12
12
12 567
12
12
12 288 350
12
12
13 370 603 612 670
13 369
13 24 175
14
14 380
14 217
14
14
14 212
14
14
14 373
15 401
15
15 447
15
15
15 217
15 454
15
15 391 403
15 300
15 389 403
15 407 423
15 397 399 414
15 454 463 661
15 469 472
15
15 393 399 457
15 99
15 305 393 397 414 457
15
15 381
15 408
15 389 391 445
15
15 280
15 217 305
15 280 392
15 402 438
15
15 413 434 439 441 449 451 458
15
15
15 410 425 471
15 393 399 457
15
15 217
15 500
15
15
15 454
15
15
15 392
15
15 413 441 462 471
15 199
15 450 451 453 471
15
15 466
15
15
15 217
15 471
15 410 451 458 467
15 984
15 441
15
15 408
15 410
15 40
15 410 425 436 471
15 467
15
15
15 403
15 587
15 383
15
15 410
15 427 453 458 471
15 410 427 434 453 471
15
15 427 450 451 471
15 387 394 420 463
15
15
15 397 399 414
15 410 434 450 467
15
15 467
15
15 425 471
15 394 454
15
15
15 275 429
15 434 442 458 460 690 697 948
15
15 395 472
15 16 18 310 517
15 413 425 427 433 441 450 451 453 462
15 395 469
16
16
16 479
16 481
16
16
16 475
16
16 476
16 18
16
17
17 491
17
17
17
17 258
17
17 485
17
17 494 499
17 493 499 504
17
17
17
17
17 493 494
17 417 716 730
17 769
17
17
17 494
18 217
18
18
18 19 305
18
18
18
18 646
18
18
18 838
18 726
18 470
18
18
18
18
18
18
18
18 356
18
19
19 305
19 560
19
19 130
19
19 867
19
19 305 771
19
19
19
19 560
19 275
19
19 217
19
19
19 988
19
19
19 568
19
19
19 217
19
19 587 786
19
19
19
19 560
19
19 587
19 529 539 557 564 585
19
19
19 564
19 560 563 585
19
19 89
19 52 217 252 363 912
19 548
19 217
19 52 344 592
19
19 781
19
19
19
19
19 33 49 52 103
19
19 585
19
19 586
19
19
19
19 560 564 579 590
19 581 792
19 446 553 559 596 789 814
19
19
19 585 652
19
19 113 570
19 596
19
19
19 587 593
19
19 354 610
19
20 616 620 624 627 630 641 645 651 660 673 674 678 695 698
20 608 615 622 626 681
20 603 604 606 614 678 684 696
20 369 602 606 614
20 602 606 614 627 634 644 673 684
20 690
20 602 603 604 612 624 632 636 644 657 660 662 687 696
20 633 663
20 601 615 662 673
20 610
20 598 609
20 614
20 369 606 614 616 632 637 644 645 684 690
20 614 630 634 640 642 650
20 602 603 604 611 612 613 616 624 632 634 640 642 643 644 650 656 657 662 678 696 700
20 601 608 616 641 651 670 695 698 701 937
20 600 612 614 615 618 619 624 625 627 628 629 641 645 646 651 656 668 674 675 700
20 183 646 658
20 616 628 641 651 698 855
20 616 646 654 668 675 693 700
20 600 630
20
20 601
20
20 600 606 614 616 636 645 670
20 616 654 678 688 700
20 601 692
20 600 604 616 631 641 646 647 649 651 656 660 668 673 678 695 698 700
20 616 618 641 647 661 668 670 674 698
20 616 646 658 661 668
20 600 613 620 634 636 700
20 627 661 674
20 606 612 614 637 644 645 673
20 607 663
20 604 613 614 630 642
20
20 606 624 630 644 696
20 184 612 632
20
20 646
20 613 614 642 643 650 678
20 600 615 616 618 627 628 651 655 656 657 670 673 678 691 695 701
20 108 613 614 634 640 650
20 614 640 676 690 692
20 604 606 612 614 632 636 657 662 664 684 687 690 696
20 600 612 616 624 632 651 678 691
20 512 616 617 619 627 629 639 654 675 693 700
20 627 628 658 661 665 668 674 683
20 190 193
20 627 690 691
20 613 614 640 642
20 320 600 615 616 618 627 641 645 654 656 673 674 678 690 691 695 698 700
20 96 590
20
20 619 625 646 651 660 668 700
20 641 678
20 614 616 627 641 651 670 690 691 692 695 701
20 606 614 641 644 670 684 690
20 306 617 629 647 661 683
20 667
20 600 606 627 654 670 691 698 701
20 394 628 629 631 647 658 668 674 683 698
20 606 608 614 644 670 684 690 701
20 607 633
20 101 644
20 647
20 668 681
20 659
20 616 619 627 628 629 647 654 661 666
20
20 369 615 624 628 641 656 657 660 662 673 678 684 690 691 696 701
20
20
20 600 604 608 627 632 641 651 670 690 691 695 698 701
20 600 616 628 631 647 651 661 695 698
20 616 619 646
20 643
20
20 600 602 614 625 627 640 641 645 651 655 670 690 691 692 698
20 988
20
20 601 666 699
20
20 647 658 661 684 690 698
20 602 604 612 644 657 662 670 683 696 701
20
20 320
20 606 644
20 625
20
20 467 605 612 643 644 649 651 656 657 662 670 673 678 683 691 696 698 701
20 641 645 649 651 656 660 670 673 678 690 695 696 698 701
20 626 643 656 678
20 619 646
20 988
20 600 615 627 641 651 656 673 674 691 698
20 602 606 614 636 644 670 684 690 691 698
20 467
20 600 615 618 627 628 651 660 661 673 674 678 683 690 691 695 696
20 681
20 614 616 619 625 627 630 646 651 654
20 615 641 656 660 662 670 673 684 690 691
21
21 310
21 354 718 747
21
21
21
21
21
21
21
21
21
21
21 718
21 500
21 217
21 704 715
21
21 305
21 217
21
22 726
22
22 217
22 516 723
22
22
22
22 500
22
22
22
22
22
22
22
23 354
23 217 987
23 745 746 749
23
23
23
23
23 740 749
23 740 747 748 749
23 704 746 749
23 746 749
23 305 740 745 746 747 748
24 760 764
24
24
24
24
24
24
24
24
24
24 750 763 764
24 96
24
24 760 764
24 750 760 763
24
24
24
25
25 501
25
25 535
25
25
25
25
25
25
25
25 52 118 122 227
25
25 572
25
25
25
25 988
25 553
25
25
25 587
25
25
25 586 795
25
25
25 792
25
25
25
25 223 232
25
25
26 130
26
26
26 809
26
26 813 959
26
26 217 805
26 813
26
26 826
26 807 810
26 587
26
26
27
27
27 823
27 825
27
27 826
27 819 832
27
27 305 820
27 812 822
27 56
27
27
27
27
27 823
27 28
27
27
27
27
28 515 920
28
28
28 40 217
28
28
28 848 862 863 868 870 876 882 894 920
28 900
28
28
28 844 855 862 863 870 876 894 920
28
28
28
28 40 230 910
28
28
28 618 848 876 920
28
28 874 922
28
28
28
28
28 844 848 868 870 875 920
28 844 848 870 874 875 882 922
28
28 902
28
28 533
28 844 862 870 920
28
28 844 848 862 863 868 875 920
28
28
28
28 857 863 882 891 894 905 908 911 920 922
28 862 863 870
28 844 848 855 894 920
28 56 217
28 886 906
28
28 118
28
28 844 863 874 894 920 922
28
28
28
28 878 920
28 118
28 920 988
28 920
28
28 874
28 29 225
28
28 844 848 874 876 882 917 920 922
28 225 323 903
28
28
28
28
28 845
28 265
28 865
28 895
28
28 874 988
28 878
28
28 874 922
28
28 852
28 874
28 52 217 567
28 120
28 211
28
28
28 894
28
28
28 318 838 844 848 855 862 868 870 874 876 882 886 888 889 894
28
28 857 863 874 882 894 908
29
29
29
29
29
29
29 937
29
29
29
29
29
29
29
29 102 230 615 929
29 939
29 102 217 938
29
29
29
29
29 322
30
30
30
30 115 322 467
30
30
30
30
30
30
30
30
30 258 300
30
30 217 807
30
30
30
30
30
30
30 124
30 127
30
30 984
30
30
30 275 988
30 974
30 973
30 294
30
30
31
31
31
31
31
31 984
31 435 969 983 997
31
31
31 739
31 124 545 679 694 785 888 905 972 993
31
31
31
31
31 988
31
31
31
31 984
31
31
